%%%mzn-stat: initTime=0.017301239
%%%mzn-stat: objective=346
%%%mzn-stat: nodes=12624
%%%mzn-stat: restarts=5
%%%mzn-stat: peakDepth=639
%%%mzn-stat: solveTime=4.482858193
%%%mzn-stat: variables=1572
%%%mzn-stat: propagators=1202
%%%mzn-stat: failures=10450
%%%mzn-stat: propagations=1337064
%%%mzn-stat: nogoods=10450
%%%mzn-stat: AverageConflictSize=36.76392344497608
%%%mzn-stat: NumUnitNogoodsLearned=243
%%%mzn-stat: AverageLearnedNogoodLength=94.98784688995215
%%%mzn-stat: AverageBacktrackAmount=0
%%%mzn-stat: AverageLbd=24.73598086124402
%%%mzn-stat-end
maxleg = 346;
succ = array1d(1..50,[19, 5, 49, 2, 25, 10, 11, 31, 16, 42, 8, 32, 6, 40, 4, 30, 21, 46, 37, 48, 18, 35, 20, 41, 43, 17, 36, 38, 24, 33, 26, 47, 1, 7, 45, 3, 28, 44, 15, 13, 9, 27, 12, 22, 34, 50, 14, 39, 29, 23]);
% time elapsed: 6.19 s
----------
%%%mzn-stat: initTime=0.017301239
%%%mzn-stat: objective=345
%%%mzn-stat: nodes=14612
%%%mzn-stat: restarts=7
%%%mzn-stat: peakDepth=664
%%%mzn-stat: solveTime=4.8880205839999995
%%%mzn-stat: variables=1572
%%%mzn-stat: propagators=1202
%%%mzn-stat: failures=11505
%%%mzn-stat: propagations=1452197
%%%mzn-stat: nogoods=11505
%%%mzn-stat: AverageConflictSize=36.964015645371575
%%%mzn-stat: NumUnitNogoodsLearned=243
%%%mzn-stat: AverageLearnedNogoodLength=92.38279009126467
%%%mzn-stat: AverageBacktrackAmount=0
%%%mzn-stat: AverageLbd=25.013385484571927
%%%mzn-stat-end
maxleg = 345;
succ = array1d(1..50,[19, 5, 49, 2, 25, 10, 11, 17, 16, 42, 26, 32, 6, 40, 4, 30, 21, 46, 37, 48, 18, 44, 20, 41, 43, 31, 36, 38, 24, 33, 8, 47, 1, 7, 45, 3, 28, 22, 15, 13, 9, 27, 12, 35, 34, 50, 14, 39, 29, 23]);
% time elapsed: 6.58 s
----------
%%%mzn-stat: initTime=0.017301239
%%%mzn-stat: objective=344
%%%mzn-stat: nodes=16507
%%%mzn-stat: restarts=8
%%%mzn-stat: peakDepth=709
%%%mzn-stat: solveTime=5.281958479
%%%mzn-stat: variables=1572
%%%mzn-stat: propagators=1202
%%%mzn-stat: failures=12360
%%%mzn-stat: propagations=1548600
%%%mzn-stat: nogoods=12360
%%%mzn-stat: AverageConflictSize=36.94757281553398
%%%mzn-stat: NumUnitNogoodsLearned=243
%%%mzn-stat: AverageLearnedNogoodLength=91.8388349514563
%%%mzn-stat: AverageBacktrackAmount=0
%%%mzn-stat: AverageLbd=25.09425566343042
%%%mzn-stat-end
maxleg = 344;
succ = array1d(1..50,[19, 5, 49, 2, 25, 10, 11, 17, 16, 42, 26, 32, 6, 40, 4, 30, 21, 46, 37, 48, 18, 34, 20, 41, 43, 31, 36, 38, 24, 33, 8, 47, 1, 7, 22, 3, 28, 44, 15, 13, 9, 27, 12, 45, 35, 50, 14, 39, 29, 23]);
% time elapsed: 6.97 s
----------
%%%mzn-stat: initTime=0.017301239
%%%mzn-stat: objective=343
%%%mzn-stat: nodes=51610
%%%mzn-stat: restarts=10
%%%mzn-stat: peakDepth=709
%%%mzn-stat: solveTime=24.572881611
%%%mzn-stat: variables=1572
%%%mzn-stat: propagators=1202
%%%mzn-stat: failures=45521
%%%mzn-stat: propagations=4565088
%%%mzn-stat: nogoods=45521
%%%mzn-stat: AverageConflictSize=40.55776454823049
%%%mzn-stat: NumUnitNogoodsLearned=243
%%%mzn-stat: AverageLearnedNogoodLength=83.33643812745765
%%%mzn-stat: AverageBacktrackAmount=0
%%%mzn-stat: AverageLbd=24.21034247929527
%%%mzn-stat-end
maxleg = 343;
succ = array1d(1..50,[19, 5, 49, 2, 25, 10, 23, 17, 16, 42, 26, 32, 6, 40, 4, 30, 21, 46, 37, 48, 18, 44, 20, 41, 43, 31, 11, 38, 24, 33, 8, 47, 1, 7, 34, 3, 28, 22, 15, 13, 9, 27, 12, 45, 35, 50, 14, 39, 29, 36]);
% time elapsed: 26.27 s
----------
%%%mzn-stat: initTime=0.017301239
%%%mzn-stat: objective=342
%%%mzn-stat: nodes=55515
%%%mzn-stat: restarts=11
%%%mzn-stat: peakDepth=709
%%%mzn-stat: solveTime=26.296723597
%%%mzn-stat: variables=1572
%%%mzn-stat: propagators=1202
%%%mzn-stat: failures=48502
%%%mzn-stat: propagations=4861244
%%%mzn-stat: nogoods=48502
%%%mzn-stat: AverageConflictSize=40.48987670611521
%%%mzn-stat: NumUnitNogoodsLearned=243
%%%mzn-stat: AverageLearnedNogoodLength=83.04907014143747
%%%mzn-stat: AverageBacktrackAmount=0
%%%mzn-stat: AverageLbd=24.175209269720835
%%%mzn-stat-end
maxleg = 342;
succ = array1d(1..50,[19, 5, 49, 2, 25, 10, 23, 17, 16, 42, 26, 32, 6, 40, 4, 30, 21, 46, 37, 48, 18, 45, 20, 41, 43, 31, 11, 38, 24, 33, 8, 47, 1, 7, 34, 3, 28, 44, 15, 13, 9, 27, 12, 22, 35, 50, 14, 39, 29, 36]);
% time elapsed: 28.00 s
----------
%%%mzn-stat: initTime=0.017301239
%%%mzn-stat: objective=341
%%%mzn-stat: nodes=111465
%%%mzn-stat: restarts=12
%%%mzn-stat: peakDepth=709
%%%mzn-stat: solveTime=61.548874643
%%%mzn-stat: variables=1572
%%%mzn-stat: propagators=1202
%%%mzn-stat: failures=101942
%%%mzn-stat: propagations=9920124
%%%mzn-stat: nogoods=101942
%%%mzn-stat: AverageConflictSize=40.04218084793314
%%%mzn-stat: NumUnitNogoodsLearned=243
%%%mzn-stat: AverageLearnedNogoodLength=79.04912597359282
%%%mzn-stat: AverageBacktrackAmount=0
%%%mzn-stat: AverageLbd=23.512281493398206
%%%mzn-stat-end
maxleg = 341;
succ = array1d(1..50,[19, 5, 49, 2, 25, 10, 23, 17, 16, 42, 26, 32, 6, 40, 4, 30, 21, 46, 37, 48, 18, 35, 20, 41, 43, 31, 11, 38, 24, 33, 8, 47, 1, 7, 34, 3, 28, 44, 15, 13, 9, 27, 12, 45, 22, 50, 14, 39, 29, 36]);
% time elapsed: 63.25 s
----------
%%%mzn-stat: initTime=0.017301239
%%%mzn-stat: objective=340
%%%mzn-stat: nodes=112329
%%%mzn-stat: restarts=13
%%%mzn-stat: peakDepth=709
%%%mzn-stat: solveTime=61.612001876
%%%mzn-stat: variables=1572
%%%mzn-stat: propagators=1202
%%%mzn-stat: failures=101993
%%%mzn-stat: propagations=9931239
%%%mzn-stat: nogoods=101993
%%%mzn-stat: AverageConflictSize=40.040689066896746
%%%mzn-stat: NumUnitNogoodsLearned=243
%%%mzn-stat: AverageLearnedNogoodLength=79.04539527222457
%%%mzn-stat: AverageBacktrackAmount=0
%%%mzn-stat: AverageLbd=23.51653544851117
%%%mzn-stat-end
maxleg = 340;
succ = array1d(1..50,[19, 5, 49, 2, 25, 10, 23, 17, 16, 42, 26, 32, 6, 40, 4, 30, 21, 46, 37, 48, 18, 45, 20, 41, 43, 31, 11, 38, 24, 33, 8, 47, 1, 7, 44, 3, 28, 22, 15, 13, 9, 27, 12, 34, 35, 50, 14, 39, 29, 36]);
% time elapsed: 63.32 s
----------
%%%mzn-stat: initTime=0.017301239
%%%mzn-stat: objective=339
%%%mzn-stat: nodes=188862
%%%mzn-stat: restarts=14
%%%mzn-stat: peakDepth=709
%%%mzn-stat: solveTime=111.908304973
%%%mzn-stat: variables=1572
%%%mzn-stat: propagators=1202
%%%mzn-stat: failures=175204
%%%mzn-stat: propagations=17149985
%%%mzn-stat: nogoods=175204
%%%mzn-stat: AverageConflictSize=39.71772904728203
%%%mzn-stat: NumUnitNogoodsLearned=243
%%%mzn-stat: AverageLearnedNogoodLength=74.5320255245314
%%%mzn-stat: AverageBacktrackAmount=0
%%%mzn-stat: AverageLbd=22.56304650578754
%%%mzn-stat-end
maxleg = 339;
succ = array1d(1..50,[19, 5, 49, 2, 25, 10, 23, 17, 16, 42, 26, 32, 6, 40, 4, 30, 21, 46, 37, 48, 18, 35, 20, 41, 43, 31, 11, 38, 24, 33, 8, 47, 1, 7, 44, 3, 28, 22, 15, 13, 9, 27, 12, 45, 34, 50, 14, 39, 29, 36]);
% time elapsed: 113.62 s
----------
%%%mzn-stat: initTime=0.017301239
%%%mzn-stat: objective=338
%%%mzn-stat: nodes=189725
%%%mzn-stat: restarts=15
%%%mzn-stat: peakDepth=709
%%%mzn-stat: solveTime=111.993921481
%%%mzn-stat: variables=1572
%%%mzn-stat: propagators=1202
%%%mzn-stat: failures=175297
%%%mzn-stat: propagations=17163931
%%%mzn-stat: nogoods=175297
%%%mzn-stat: AverageConflictSize=39.71595634836877
%%%mzn-stat: NumUnitNogoodsLearned=243
%%%mzn-stat: AverageLearnedNogoodLength=74.52631819141229
%%%mzn-stat: AverageBacktrackAmount=0
%%%mzn-stat: AverageLbd=22.565446071524327
%%%mzn-stat-end
maxleg = 338;
succ = array1d(1..50,[19, 5, 49, 2, 25, 10, 23, 17, 16, 42, 26, 32, 6, 40, 4, 30, 21, 46, 37, 48, 18, 35, 20, 41, 43, 31, 11, 38, 24, 33, 8, 47, 1, 7, 34, 3, 28, 45, 15, 13, 9, 27, 12, 22, 44, 50, 14, 39, 29, 36]);
% time elapsed: 113.71 s
----------
%%%mzn-stat: initTime=0.017301239
%%%mzn-stat: objective=337
%%%mzn-stat: nodes=191042
%%%mzn-stat: restarts=16
%%%mzn-stat: peakDepth=709
%%%mzn-stat: solveTime=112.376178815
%%%mzn-stat: variables=1572
%%%mzn-stat: propagators=1202
%%%mzn-stat: failures=175880
%%%mzn-stat: propagations=17224008
%%%mzn-stat: nogoods=175880
%%%mzn-stat: AverageConflictSize=39.714487150329774
%%%mzn-stat: NumUnitNogoodsLearned=243
%%%mzn-stat: AverageLearnedNogoodLength=74.48376734136912
%%%mzn-stat: AverageBacktrackAmount=0
%%%mzn-stat: AverageLbd=22.574368887878098
%%%mzn-stat-end
maxleg = 337;
succ = array1d(1..50,[19, 5, 49, 2, 25, 10, 23, 17, 16, 42, 26, 32, 6, 40, 4, 30, 21, 46, 37, 48, 18, 35, 20, 41, 43, 31, 11, 38, 24, 33, 8, 47, 1, 7, 45, 3, 28, 22, 15, 13, 9, 27, 12, 34, 44, 50, 14, 39, 29, 36]);
% time elapsed: 114.10 s
----------
%%%mzn-stat: initTime=0.017301239
%%%mzn-stat: objective=336
%%%mzn-stat: nodes=192149
%%%mzn-stat: restarts=17
%%%mzn-stat: peakDepth=709
%%%mzn-stat: solveTime=112.560014819
%%%mzn-stat: variables=1572
%%%mzn-stat: propagators=1202
%%%mzn-stat: failures=176135
%%%mzn-stat: propagations=17254965
%%%mzn-stat: nogoods=176135
%%%mzn-stat: AverageConflictSize=39.71470746870298
%%%mzn-stat: NumUnitNogoodsLearned=243
%%%mzn-stat: AverageLearnedNogoodLength=74.46731768245948
%%%mzn-stat: AverageBacktrackAmount=0
%%%mzn-stat: AverageLbd=22.580787464161013
%%%mzn-stat-end
maxleg = 336;
succ = array1d(1..50,[19, 5, 49, 2, 25, 10, 23, 17, 16, 42, 26, 32, 6, 40, 4, 30, 21, 46, 37, 48, 18, 45, 20, 41, 43, 31, 11, 38, 24, 33, 8, 47, 1, 7, 22, 3, 28, 44, 15, 13, 9, 27, 12, 35, 34, 50, 14, 39, 29, 36]);
% time elapsed: 114.29 s
----------
%%%mzn-stat: initTime=0.017301239
%%%mzn-stat: objective=335
%%%mzn-stat: nodes=210211
%%%mzn-stat: restarts=18
%%%mzn-stat: peakDepth=709
%%%mzn-stat: solveTime=124.743929422
%%%mzn-stat: variables=1572
%%%mzn-stat: propagators=1202
%%%mzn-stat: failures=193096
%%%mzn-stat: propagations=19002035
%%%mzn-stat: nogoods=193096
%%%mzn-stat: AverageConflictSize=39.66390810788416
%%%mzn-stat: NumUnitNogoodsLearned=243
%%%mzn-stat: AverageLearnedNogoodLength=73.99859137423871
%%%mzn-stat: AverageBacktrackAmount=0
%%%mzn-stat: AverageLbd=22.45916021046526
%%%mzn-stat-end
maxleg = 335;
succ = array1d(1..50,[19, 5, 49, 2, 25, 10, 23, 17, 16, 42, 26, 32, 6, 40, 4, 30, 21, 46, 37, 48, 18, 44, 20, 41, 43, 31, 11, 38, 24, 33, 8, 47, 1, 7, 22, 3, 28, 45, 15, 13, 9, 27, 12, 34, 35, 50, 14, 39, 29, 36]);
% time elapsed: 126.48 s
----------
%%%mzn-stat: initTime=0.017301239
%%%mzn-stat: objective=334
%%%mzn-stat: nodes=211011
%%%mzn-stat: restarts=19
%%%mzn-stat: peakDepth=709
%%%mzn-stat: solveTime=124.805461781
%%%mzn-stat: variables=1572
%%%mzn-stat: propagators=1202
%%%mzn-stat: failures=193148
%%%mzn-stat: propagations=19012346
%%%mzn-stat: nogoods=193148
%%%mzn-stat: AverageConflictSize=39.66336695176756
%%%mzn-stat: NumUnitNogoodsLearned=243
%%%mzn-stat: AverageLearnedNogoodLength=73.99927516722927
%%%mzn-stat: AverageBacktrackAmount=0
%%%mzn-stat: AverageLbd=22.460745128088305
%%%mzn-stat-end
maxleg = 334;
succ = array1d(1..50,[19, 5, 49, 2, 25, 10, 23, 17, 16, 42, 26, 32, 6, 40, 4, 30, 21, 46, 37, 48, 18, 35, 20, 41, 43, 31, 11, 38, 24, 33, 8, 47, 1, 7, 44, 3, 28, 22, 15, 13, 9, 27, 12, 45, 34, 50, 14, 39, 29, 36]);
% time elapsed: 126.55 s
----------
%%%mzn-stat: initTime=0.017301239
%%%mzn-stat: objective=333
%%%mzn-stat: nodes=211822
%%%mzn-stat: restarts=20
%%%mzn-stat: peakDepth=709
%%%mzn-stat: solveTime=124.863489821
%%%mzn-stat: variables=1572
%%%mzn-stat: propagators=1202
%%%mzn-stat: failures=193202
%%%mzn-stat: propagations=19021850
%%%mzn-stat: nogoods=193202
%%%mzn-stat: AverageConflictSize=39.66356455937309
%%%mzn-stat: NumUnitNogoodsLearned=243
%%%mzn-stat: AverageLearnedNogoodLength=73.99738097949296
%%%mzn-stat: AverageBacktrackAmount=0
%%%mzn-stat: AverageLbd=22.462971397811618
%%%mzn-stat-end
maxleg = 333;
succ = array1d(1..50,[19, 5, 49, 2, 25, 10, 23, 17, 16, 42, 26, 32, 6, 40, 4, 30, 21, 46, 37, 48, 18, 35, 20, 41, 43, 31, 11, 38, 24, 33, 8, 47, 1, 7, 34, 3, 28, 45, 15, 13, 9, 27, 12, 22, 44, 50, 14, 39, 29, 36]);
% time elapsed: 126.61 s
----------
%%%mzn-stat: initTime=0.017301239
%%%mzn-stat: objective=332
%%%mzn-stat: nodes=213400
%%%mzn-stat: restarts=21
%%%mzn-stat: peakDepth=709
%%%mzn-stat: solveTime=125.438953503
%%%mzn-stat: variables=1572
%%%mzn-stat: propagators=1202
%%%mzn-stat: failures=194087
%%%mzn-stat: propagations=19110944
%%%mzn-stat: nogoods=194087
%%%mzn-stat: AverageConflictSize=39.66738627522709
%%%mzn-stat: NumUnitNogoodsLearned=243
%%%mzn-stat: AverageLearnedNogoodLength=73.95131049477811
%%%mzn-stat: AverageBacktrackAmount=0
%%%mzn-stat: AverageLbd=22.47765692704818
%%%mzn-stat-end
maxleg = 332;
succ = array1d(1..50,[19, 5, 49, 2, 25, 10, 23, 17, 16, 42, 26, 32, 6, 40, 4, 30, 21, 46, 37, 48, 18, 35, 20, 41, 43, 31, 11, 38, 24, 33, 8, 47, 1, 7, 45, 3, 28, 44, 15, 13, 9, 27, 12, 22, 34, 50, 14, 39, 29, 36]);
% time elapsed: 127.19 s
----------
%%%mzn-stat: initTime=0.017301239
%%%mzn-stat: objective=331
%%%mzn-stat: nodes=214303
%%%mzn-stat: restarts=22
%%%mzn-stat: peakDepth=709
%%%mzn-stat: solveTime=125.53929177
%%%mzn-stat: variables=1572
%%%mzn-stat: propagators=1202
%%%mzn-stat: failures=194197
%%%mzn-stat: propagations=19125882
%%%mzn-stat: nogoods=194197
%%%mzn-stat: AverageConflictSize=39.667209071200894
%%%mzn-stat: NumUnitNogoodsLearned=243
%%%mzn-stat: AverageLearnedNogoodLength=73.95046782391077
%%%mzn-stat: AverageBacktrackAmount=0
%%%mzn-stat: AverageLbd=22.480342126809376
%%%mzn-stat-end
maxleg = 331;
succ = array1d(1..50,[19, 5, 49, 2, 25, 10, 23, 17, 16, 42, 26, 32, 6, 40, 4, 30, 21, 46, 37, 48, 18, 34, 20, 41, 43, 31, 11, 38, 24, 33, 8, 47, 1, 7, 22, 3, 28, 45, 15, 13, 9, 27, 12, 35, 44, 50, 14, 39, 29, 36]);
% time elapsed: 127.29 s
----------
%%%mzn-stat: initTime=0.017301239
%%%mzn-stat: objective=330
%%%mzn-stat: nodes=215629
%%%mzn-stat: restarts=23
%%%mzn-stat: peakDepth=709
%%%mzn-stat: solveTime=125.971617001
%%%mzn-stat: variables=1572
%%%mzn-stat: propagators=1202
%%%mzn-stat: failures=194781
%%%mzn-stat: propagations=19179033
%%%mzn-stat: nogoods=194781
%%%mzn-stat: AverageConflictSize=39.66499299212962
%%%mzn-stat: NumUnitNogoodsLearned=243
%%%mzn-stat: AverageLearnedNogoodLength=73.95387127081183
%%%mzn-stat: AverageBacktrackAmount=0
%%%mzn-stat: AverageLbd=22.490781955118827
%%%mzn-stat-end
maxleg = 330;
succ = array1d(1..50,[19, 5, 49, 2, 25, 10, 23, 17, 16, 42, 26, 32, 6, 40, 4, 30, 21, 46, 37, 48, 18, 45, 20, 41, 43, 31, 11, 38, 24, 33, 8, 47, 1, 7, 22, 3, 28, 44, 15, 13, 9, 27, 12, 35, 34, 50, 14, 39, 29, 36]);
% time elapsed: 127.73 s
----------
%%%mzn-stat: initTime=0.017301239
%%%mzn-stat: objective=329
%%%mzn-stat: nodes=216486
%%%mzn-stat: restarts=24
%%%mzn-stat: peakDepth=709
%%%mzn-stat: solveTime=126.040614238
%%%mzn-stat: variables=1572
%%%mzn-stat: propagators=1202
%%%mzn-stat: failures=194843
%%%mzn-stat: propagations=19188897
%%%mzn-stat: nogoods=194843
%%%mzn-stat: AverageConflictSize=39.66428868370945
%%%mzn-stat: NumUnitNogoodsLearned=243
%%%mzn-stat: AverageLearnedNogoodLength=73.95341377416689
%%%mzn-stat: AverageBacktrackAmount=0
%%%mzn-stat: AverageLbd=22.49265305912966
%%%mzn-stat-end
maxleg = 329;
succ = array1d(1..50,[19, 5, 49, 2, 25, 10, 23, 17, 16, 42, 26, 32, 6, 40, 4, 30, 21, 46, 37, 48, 18, 45, 20, 41, 43, 31, 11, 38, 24, 33, 8, 47, 1, 7, 44, 3, 28, 22, 15, 13, 9, 27, 12, 34, 35, 50, 14, 39, 29, 36]);
% time elapsed: 127.80 s
----------
%%%mzn-stat: initTime=0.017301239
%%%mzn-stat: objective=328
%%%mzn-stat: nodes=217213
%%%mzn-stat: restarts=25
%%%mzn-stat: peakDepth=709
%%%mzn-stat: solveTime=126.096961776
%%%mzn-stat: variables=1572
%%%mzn-stat: propagators=1202
%%%mzn-stat: failures=194894
%%%mzn-stat: propagations=19198162
%%%mzn-stat: nogoods=194894
%%%mzn-stat: AverageConflictSize=39.66356583578766
%%%mzn-stat: NumUnitNogoodsLearned=243
%%%mzn-stat: AverageLearnedNogoodLength=73.95204572742107
%%%mzn-stat: AverageBacktrackAmount=0
%%%mzn-stat: AverageLbd=22.494094225579033
%%%mzn-stat-end
maxleg = 328;
succ = array1d(1..50,[19, 5, 49, 2, 25, 10, 23, 17, 16, 42, 26, 32, 6, 40, 4, 30, 21, 46, 37, 48, 18, 44, 20, 41, 43, 31, 11, 38, 24, 33, 8, 47, 1, 7, 45, 3, 28, 22, 15, 13, 9, 27, 12, 35, 34, 50, 14, 39, 29, 36]);
% time elapsed: 127.87 s
----------
%%%mzn-stat: initTime=0.017301239
%%%mzn-stat: objective=327
%%%mzn-stat: nodes=217918
%%%mzn-stat: restarts=26
%%%mzn-stat: peakDepth=709
%%%mzn-stat: solveTime=126.152680192
%%%mzn-stat: variables=1572
%%%mzn-stat: propagators=1202
%%%mzn-stat: failures=194946
%%%mzn-stat: propagations=19207135
%%%mzn-stat: nogoods=194946
%%%mzn-stat: AverageConflictSize=39.66182942968822
%%%mzn-stat: NumUnitNogoodsLearned=243
%%%mzn-stat: AverageLearnedNogoodLength=73.95230474080002
%%%mzn-stat: AverageBacktrackAmount=0
%%%mzn-stat: AverageLbd=22.496327188041818
%%%mzn-stat-end
maxleg = 327;
succ = array1d(1..50,[19, 5, 49, 2, 25, 10, 23, 17, 16, 42, 26, 32, 6, 40, 4, 30, 21, 46, 37, 48, 18, 44, 20, 41, 43, 31, 11, 38, 24, 33, 8, 47, 1, 7, 34, 3, 28, 45, 15, 13, 9, 27, 12, 35, 22, 50, 14, 39, 29, 36]);
% time elapsed: 127.93 s
----------
%%%mzn-stat: initTime=0.017301239
%%%mzn-stat: objective=326
%%%mzn-stat: nodes=221381
%%%mzn-stat: restarts=27
%%%mzn-stat: peakDepth=709
%%%mzn-stat: solveTime=128.231444507
%%%mzn-stat: variables=1572
%%%mzn-stat: propagators=1202
%%%mzn-stat: failures=197525
%%%mzn-stat: propagations=19467696
%%%mzn-stat: nogoods=197525
%%%mzn-stat: AverageConflictSize=39.687993924819644
%%%mzn-stat: NumUnitNogoodsLearned=243
%%%mzn-stat: AverageLearnedNogoodLength=74.37146690292369
%%%mzn-stat: AverageBacktrackAmount=0
%%%mzn-stat: AverageLbd=22.525842298443234
%%%mzn-stat-end
maxleg = 326;
succ = array1d(1..50,[19, 5, 49, 2, 25, 10, 23, 17, 16, 42, 26, 32, 6, 40, 4, 30, 21, 46, 37, 48, 18, 45, 20, 41, 43, 31, 11, 38, 24, 33, 8, 47, 1, 7, 34, 3, 28, 22, 15, 13, 9, 27, 12, 35, 44, 50, 14, 39, 29, 36]);
% time elapsed: 130.01 s
----------
%%%mzn-stat: initTime=0.017301239
%%%mzn-stat: objective=325
%%%mzn-stat: nodes=222175
%%%mzn-stat: restarts=28
%%%mzn-stat: peakDepth=709
%%%mzn-stat: solveTime=128.322316394
%%%mzn-stat: variables=1572
%%%mzn-stat: propagators=1202
%%%mzn-stat: failures=197603
%%%mzn-stat: propagations=19480667
%%%mzn-stat: nogoods=197603
%%%mzn-stat: AverageConflictSize=39.690141344007934
%%%mzn-stat: NumUnitNogoodsLearned=243
%%%mzn-stat: AverageLearnedNogoodLength=74.38261058789594
%%%mzn-stat: AverageBacktrackAmount=0
%%%mzn-stat: AverageLbd=22.527891783019488
%%%mzn-stat-end
maxleg = 325;
succ = array1d(1..50,[19, 5, 49, 2, 25, 10, 23, 17, 16, 42, 26, 32, 6, 40, 4, 30, 21, 46, 37, 48, 18, 35, 20, 41, 43, 31, 11, 38, 24, 33, 8, 47, 1, 7, 34, 3, 28, 44, 15, 13, 9, 27, 12, 45, 22, 50, 14, 39, 29, 36]);
% time elapsed: 130.11 s
----------
%%%mzn-stat: initTime=0.017301239
%%%mzn-stat: objective=324
%%%mzn-stat: nodes=223081
%%%mzn-stat: restarts=29
%%%mzn-stat: peakDepth=709
%%%mzn-stat: solveTime=128.391194471
%%%mzn-stat: variables=1572
%%%mzn-stat: propagators=1202
%%%mzn-stat: failures=197655
%%%mzn-stat: propagations=19490302
%%%mzn-stat: nogoods=197655
%%%mzn-stat: AverageConflictSize=39.690354405403355
%%%mzn-stat: NumUnitNogoodsLearned=243
%%%mzn-stat: AverageLearnedNogoodLength=74.38459436897625
%%%mzn-stat: AverageBacktrackAmount=0
%%%mzn-stat: AverageLbd=22.52967544458779
%%%mzn-stat-end
maxleg = 324;
succ = array1d(1..50,[19, 5, 49, 2, 25, 10, 23, 17, 16, 42, 26, 32, 6, 40, 4, 30, 21, 46, 37, 48, 18, 44, 20, 41, 43, 31, 11, 38, 24, 33, 8, 47, 1, 7, 34, 3, 28, 22, 15, 13, 9, 27, 12, 45, 35, 50, 14, 39, 29, 36]);
% time elapsed: 130.18 s
----------
%%%mzn-stat: initTime=0.017301239
%%%mzn-stat: objective=323
%%%mzn-stat: nodes=223995
%%%mzn-stat: restarts=30
%%%mzn-stat: peakDepth=709
%%%mzn-stat: solveTime=128.529339369
%%%mzn-stat: variables=1572
%%%mzn-stat: propagators=1202
%%%mzn-stat: failures=197799
%%%mzn-stat: propagations=19508848
%%%mzn-stat: nogoods=197799
%%%mzn-stat: AverageConflictSize=39.69169712688133
%%%mzn-stat: NumUnitNogoodsLearned=243
%%%mzn-stat: AverageLearnedNogoodLength=74.3849412787729
%%%mzn-stat: AverageBacktrackAmount=0
%%%mzn-stat: AverageLbd=22.53271250107432
%%%mzn-stat-end
maxleg = 323;
succ = array1d(1..50,[19, 5, 49, 2, 25, 10, 23, 17, 16, 42, 26, 32, 6, 40, 4, 30, 21, 46, 37, 48, 18, 45, 20, 41, 43, 31, 11, 38, 24, 33, 8, 47, 1, 7, 22, 3, 28, 44, 15, 13, 9, 27, 12, 35, 34, 50, 14, 39, 29, 36]);
% time elapsed: 130.33 s
----------
%%%mzn-stat: initTime=0.017301239
%%%mzn-stat: objective=322
%%%mzn-stat: nodes=229298
%%%mzn-stat: restarts=31
%%%mzn-stat: peakDepth=709
%%%mzn-stat: solveTime=131.51570005
%%%mzn-stat: variables=1572
%%%mzn-stat: propagators=1202
%%%mzn-stat: failures=202240
%%%mzn-stat: propagations=19955389
%%%mzn-stat: nogoods=202240
%%%mzn-stat: AverageConflictSize=39.71028975474684
%%%mzn-stat: NumUnitNogoodsLearned=243
%%%mzn-stat: AverageLearnedNogoodLength=74.17931665348101
%%%mzn-stat: AverageBacktrackAmount=0
%%%mzn-stat: AverageLbd=22.5419551028481
%%%mzn-stat-end
maxleg = 322;
succ = array1d(1..50,[19, 5, 49, 2, 25, 10, 23, 17, 16, 42, 26, 32, 6, 40, 4, 30, 21, 46, 37, 48, 18, 34, 20, 41, 43, 31, 11, 38, 24, 33, 8, 47, 1, 7, 22, 3, 28, 44, 15, 13, 9, 27, 12, 45, 35, 50, 14, 39, 29, 36]);
% time elapsed: 133.32 s
----------
%%%mzn-stat: initTime=0.017301239
%%%mzn-stat: objective=321
%%%mzn-stat: nodes=238525
%%%mzn-stat: restarts=32
%%%mzn-stat: peakDepth=709
%%%mzn-stat: solveTime=137.553095882
%%%mzn-stat: variables=1572
%%%mzn-stat: propagators=1202
%%%mzn-stat: failures=209999
%%%mzn-stat: propagations=20679100
%%%mzn-stat: nogoods=209999
%%%mzn-stat: AverageConflictSize=39.68727946323554
%%%mzn-stat: NumUnitNogoodsLearned=243
%%%mzn-stat: AverageLearnedNogoodLength=74.54991214243877
%%%mzn-stat: AverageBacktrackAmount=0
%%%mzn-stat: AverageLbd=22.578245610693383
%%%mzn-stat-end
maxleg = 321;
succ = array1d(1..50,[19, 5, 49, 2, 25, 10, 23, 17, 16, 42, 26, 32, 6, 40, 4, 30, 21, 46, 37, 48, 18, 34, 20, 41, 43, 31, 11, 38, 24, 33, 8, 47, 1, 7, 22, 3, 28, 44, 15, 13, 9, 27, 12, 45, 35, 50, 14, 39, 29, 36]);
% time elapsed: 139.36 s
----------
%%%mzn-stat: initTime=0.017301239
%%%mzn-stat: objective=246
%%%mzn-stat: nodes=241179
%%%mzn-stat: restarts=32
%%%mzn-stat: peakDepth=709
%%%mzn-stat: solveTime=138.443818558
%%%mzn-stat: variables=1572
%%%mzn-stat: propagators=1202
%%%mzn-stat: failures=211934
%%%mzn-stat: propagations=20808315
%%%mzn-stat: nogoods=211934
%%%mzn-stat: AverageConflictSize=39.450715788877666
%%%mzn-stat: NumUnitNogoodsLearned=243
%%%mzn-stat: AverageLearnedNogoodLength=74.42501910972284
%%%mzn-stat: AverageBacktrackAmount=0
%%%mzn-stat: AverageLbd=22.467895665631755
%%%mzn-stat-end
maxleg = 246;
succ = array1d(1..50,[19, 5, 49, 2, 25, 27, 6, 21, 16, 23, 26, 32, 34, 40, 4, 33, 28, 46, 37, 48, 18, 7, 20, 41, 43, 31, 11, 42, 24, 10, 17, 47, 1, 38, 22, 3, 30, 44, 15, 13, 9, 8, 12, 45, 35, 50, 14, 39, 29, 36]);
% time elapsed: 140.26 s
----------
==========
% time elapsed: 140.27 s
%%%mzn-stat: initTime=0.017301239
%%%mzn-stat: objective=246
%%%mzn-stat: nodes=241179
%%%mzn-stat: restarts=32
%%%mzn-stat: peakDepth=709
%%%mzn-stat: solveTime=138.446425394
%%%mzn-stat: variables=1572
%%%mzn-stat: propagators=1202
%%%mzn-stat: failures=211935
%%%mzn-stat: propagations=20809167
%%%mzn-stat: nogoods=211935
%%%mzn-stat: AverageConflictSize=39.451190223417555
%%%mzn-stat: NumUnitNogoodsLearned=244
%%%mzn-stat: AverageLearnedNogoodLength=74.42467265907
%%%mzn-stat: AverageBacktrackAmount=0
%%%mzn-stat: AverageLbd=22.467794370915612
%%%mzn-stat-end
